c CNF file generated from BLIF2CNF script.
c Original BLIF file was s27.blif
p cnf 30 54
-1 -3 0
3 1  0
-3 2 0
-2 3  0
-4 -6 0
-1 -6 0
6 4 1  0
-6 5 0
-5 6  0
-7 -9 0
-8 -9 0
9 7 8  0
-9 1 0
-1 9  0
-10 -13 0
-11 -13 0
13 10 11  0
-13 12 0
-12 13  0
-14 -15 0
15 14  0
-15 4 0
-4 15  0
4 -18 0
16 -18 0
18 -4 -16  0
-18 17 0
-17 18  0
-19 -21 0
-20 -21 0
21 19 20  0
-21 11 0
-11 21  0
11 -23 0
23 -11  0
-23 22 0
17 -24 0
24 -17  0
-24 22 0
-22 23 24  0
25 -27 0
27 -25  0
-27 26 0
17 -28 0
28 -17  0
-28 26 0
-26 27 28  0
-26 -29 0
29 26  0
-29 8 0
-22 -30 0
30 22  0
-30 8 0
-8 29 30  0
